N = 88;
M = 168;
Edge_Start = [1, 2, 2, 2, 3, 4, 5, 6, 7, 7, 8, 9, 9, 9, 10, 11, 11, 12, 13, 13, 13, 14, 14, 15, 15, 15, 16, 16, 16, 17, 17, 18, 18, 19, 19, 20, 20, 20, 21, 22, 23, 24, 25, 25, 26, 26, 27, 27, 28, 28, 29, 29, 29, 30, 30, 30, 31, 31, 31, 32, 32, 32, 33, 33, 34, 34, 34, 35, 36, 37, 37, 38, 38, 39, 39, 40, 40, 40, 41, 42, 42, 42, 43, 43, 43, 44, 44, 44, 45, 45, 46, 47, 47, 48, 48, 48, 49, 50, 50, 51, 51, 52, 53, 53, 54, 54, 55, 55, 55, 56, 57, 57, 58, 58, 59, 59, 60, 60, 60, 61, 61, 62, 63, 63, 64, 65, 65, 65, 66, 67, 67, 67, 68, 68, 69, 70, 70, 71, 72, 72, 72, 73, 74, 74, 75, 75, 76, 76, 77, 78, 78, 79, 79, 80, 80, 81, 81, 82, 83, 84, 85, 85, 86, 87, 87, 88, 88, 88];
Edge_End = [12, 39, 59, 69, 60, 6, 35, 18, 29, 65, 26, 47, 72, 74, 51, 32, 67, 68, 15, 16, 54, 30, 78, 13, 31, 88, 13, 32, 34, 21, 58, 17, 21, 61, 64, 36, 45, 53, 4, 77, 50, 20, 30, 88, 33, 46, 42, 44, 29, 65, 7, 27, 60, 25, 28, 57, 15, 34, 43, 11, 16, 48, 44, 67, 16, 31, 43, 84, 62, 1, 55, 80, 82, 2, 24, 42, 65, 86, 75, 7, 27, 40, 31, 34, 60, 33, 59, 69, 23, 66, 69, 9, 48, 11, 32, 47, 45, 22, 61, 52, 56, 10, 2, 24, 13, 55, 37, 54, 88, 19, 30, 78, 17, 72, 42, 44, 3, 29, 43, 23, 64, 63, 49, 62, 66, 28, 40, 57, 53, 11, 33, 83, 14, 75, 39, 58, 74, 76, 9, 58, 73, 72, 9, 76, 14, 81, 71, 74, 52, 79, 87, 14, 81, 5, 84, 41, 85, 38, 8, 41, 80, 82, 40, 51, 56, 15, 25, 55];
L = [1, 1, 1, 1, 1, 1, 1, 1, 1, 1, 1, 1, 1, 1, 1, 1, 1, 1, 1, 1, 1, 1, 1, 1, 1, 1, 1, 1, 1, 1, 1, 1, 1, 1, 1, 1, 1, 1, 1, 1, 1, 1, 1, 1, 1, 1, 1, 1, 1, 1, 1, 1, 1, 1, 1, 1, 1, 1, 1, 1, 1, 1, 1, 1, 1, 1, 1, 1, 1, 1, 1, 1, 1, 1, 1, 1, 1, 1, 1, 1, 1, 1, 1, 1, 1, 1, 1, 1, 1, 1, 1, 1, 1, 1, 1, 1, 1, 1, 1, 1, 1, 1, 1, 1, 1, 1, 1, 1, 1, 1, 1, 1, 1, 1, 1, 1, 1, 1, 1, 1, 1, 1, 1, 1, 1, 1, 1, 1, 1, 1, 1, 1, 1, 1, 1, 1, 1, 1, 1, 1, 1, 1, 1, 1, 1, 1, 1, 1, 1, 1, 1, 1, 1, 1, 1, 1, 1, 1, 1, 1, 1, 1, 1, 1, 1, 1, 1, 1];
T = [1, 1, 1, 1, 1, 1, 1, 1, 1, 1, 1, 1, 1, 1, 1, 1, 1, 1, 1, 1, 1, 1, 1, 1, 1, 1, 1, 1, 1, 1, 1, 1, 1, 1, 1, 1, 1, 1, 1, 1, 1, 1, 1, 1, 1, 1, 1, 1, 1, 1, 1, 1, 1, 1, 1, 1, 1, 1, 1, 1, 1, 1, 1, 1, 1, 1, 1, 1, 1, 1, 1, 1, 1, 1, 1, 1, 1, 1, 1, 1, 1, 1, 1, 1, 1, 1, 1, 1, 1, 1, 1, 1, 1, 1, 1, 1, 1, 1, 1, 1, 1, 1, 1, 1, 1, 1, 1, 1, 1, 1, 1, 1, 1, 1, 1, 1, 1, 1, 1, 1, 1, 1, 1, 1, 1, 1, 1, 1, 1, 1, 1, 1, 1, 1, 1, 1, 1, 1, 1, 1, 1, 1, 1, 1, 1, 1, 1, 1, 1, 1, 1, 1, 1, 1, 1, 1, 1, 1, 1, 1, 1, 1, 1, 1, 1, 1, 1, 1];
Lower_Bound = [11, 11, 10, 4, 18, 5, 11, 8, 2, 17, 5, 12, 7, 14, 8, 6, 2, 6, 16, 12, 3, 16, 14, 11, 10, 9, 11, 12, 10, 11, 8, 5, 7, 7, 19, 13, 10, 18, 10, 11, 16, 10, 8, 8, 13, 10, 3, 4, 16, 15, 15, 16, 13, 8, 9, 15, 12, 1, 9, 9, 16, 14, 15, 17, 12, 14, 6, 13, 9, 0, 3, 2, 3, 1, 14, 2, 17, 13, 14, 17, 15, 17, 7, 18, 16, 12, 14, 9];
Upper_Bound = [11, 11, 10, 4, 18, 5, 12, 9, 2, 17, 6, 13, 8, 15, 8, 6, 2, 7, 16, 13, 4, 17, 15, 12, 10, 10, 11, 13, 10, 12, 8, 5, 8, 8, 19, 14, 10, 18, 11, 12, 17, 10, 8, 8, 13, 10, 3, 4, 17, 15, 15, 16, 14, 8, 10, 16, 13, 1, 9, 9, 17, 14, 16, 18, 13, 14, 6, 14, 10, 1, 3, 3, 4, 1, 15, 2, 18, 14, 15, 18, 15, 17, 8, 18, 17, 12, 14, 9];
Start = 70;
End = 61;
Time = 17;
